*SENSE:Minimize
NAME          MODEL
ROWS
 N  OBJ
 G  C0000000
 L  C0000001
 E  C0000002
 G  C0000003
 L  C0000004
 E  C0000005
 G  C0000006
 L  C0000007
 E  C0000008
 E  C0000009
 G  C0000010
 L  C0000011
 G  C0000012
 L  C0000013
 L  C0000014
 G  C0000015
 L  C0000016
 G  C0000017
 L  C0000018
 L  C0000019
 G  C0000020
 L  C0000021
 G  C0000022
 L  C0000023
 L  C0000024
 E  C0000025
 G  C0000026
 L  C0000027
 E  C0000028
 G  C0000029
 L  C0000030
 L  C0000031
 G  C0000032
 L  C0000033
 G  C0000034
 L  C0000035
 L  C0000036
 G  C0000037
 L  C0000038
 G  C0000039
 L  C0000040
 L  C0000041
 E  C0000042
 G  C0000043
 L  C0000044
 G  C0000045
 L  C0000046
 L  C0000047
 G  C0000048
 L  C0000049
 G  C0000050
 L  C0000051
 L  C0000052
 G  C0000053
 L  C0000054
 G  C0000055
 L  C0000056
 L  C0000057
 E  C0000058
COLUMNS
    X0000000  C0000000   1.000000000000e+00
    X0000000  C0000001   1.000000000000e+00
    X0000000  C0000009   1.000000000000e+00
    X0000000  OBJ        2.000000000000e+01
    X0000001  C0000003   1.000000000000e+00
    X0000001  C0000004   1.000000000000e+00
    X0000001  C0000009   1.000000000000e+00
    X0000001  OBJ        4.400000000000e+01
    X0000002  C0000006   1.000000000000e+00
    X0000002  C0000007   1.000000000000e+00
    X0000002  C0000009   1.000000000000e+00
    X0000002  OBJ        1.000000000000e+02
    X0000003  C0000010   1.000000000000e+00
    X0000003  C0000011   1.000000000000e+00
    X0000003  C0000025   1.000000000000e+00
    X0000003  OBJ        2.000000000000e+01
    X0000004  C0000015   1.000000000000e+00
    X0000004  C0000016   1.000000000000e+00
    X0000004  C0000025   1.000000000000e+00
    X0000004  OBJ        4.400000000000e+01
    X0000005  C0000020   1.000000000000e+00
    X0000005  C0000021   1.000000000000e+00
    X0000005  C0000025   1.000000000000e+00
    X0000005  OBJ        1.000000000000e+02
    X0000006  C0000026   1.000000000000e+00
    X0000006  C0000027   1.000000000000e+00
    X0000006  C0000042   1.000000000000e+00
    X0000006  OBJ        2.000000000000e+01
    X0000007  C0000032   1.000000000000e+00
    X0000007  C0000033   1.000000000000e+00
    X0000007  C0000042   1.000000000000e+00
    X0000007  OBJ        4.400000000000e+01
    X0000008  C0000037   1.000000000000e+00
    X0000008  C0000038   1.000000000000e+00
    X0000008  C0000042   1.000000000000e+00
    X0000008  OBJ        1.000000000000e+02
    X0000009  C0000043   1.000000000000e+00
    X0000009  C0000044   1.000000000000e+00
    X0000009  C0000058   1.000000000000e+00
    X0000009  OBJ        2.000000000000e+01
    X0000010  C0000048   1.000000000000e+00
    X0000010  C0000049   1.000000000000e+00
    X0000010  C0000058   1.000000000000e+00
    X0000010  OBJ        4.400000000000e+01
    X0000011  C0000053   1.000000000000e+00
    X0000011  C0000054   1.000000000000e+00
    X0000011  C0000058   1.000000000000e+00
    X0000011  OBJ        1.000000000000e+02
    MARK      'MARKER'                 'INTORG'
    X0000012  C0000000  -1.000000000000e+02
    X0000012  C0000001  -1.000000000000e+03
    X0000012  C0000002  -1.000000000000e+00
    X0000012  C0000012   1.000000000000e+00
    X0000012  C0000013   1.000000000000e+00
    MARK      'MARKER'                 'INTEND'
    MARK      'MARKER'                 'INTORG'
    X0000013  C0000003  -1.000000000000e+02
    X0000013  C0000004  -5.500000000000e+02
    X0000013  C0000005  -1.000000000000e+00
    X0000013  C0000017   1.000000000000e+00
    X0000013  C0000018   1.000000000000e+00
    MARK      'MARKER'                 'INTEND'
    MARK      'MARKER'                 'INTORG'
    X0000014  C0000006  -1.000000000000e+02
    X0000014  C0000007  -2.000000000000e+02
    X0000014  C0000008  -1.000000000000e+00
    X0000014  C0000022   1.000000000000e+00
    X0000014  C0000023   1.000000000000e+00
    MARK      'MARKER'                 'INTEND'
    MARK      'MARKER'                 'INTORG'
    X0000015  C0000010  -1.000000000000e+02
    X0000015  C0000011  -1.000000000000e+03
    X0000015  C0000012  -1.000000000000e+00
    X0000015  C0000014  -1.000000000000e+00
    X0000015  C0000029   1.000000000000e+00
    X0000015  C0000030   1.000000000000e+00
    MARK      'MARKER'                 'INTEND'
    MARK      'MARKER'                 'INTORG'
    X0000016  C0000015  -1.000000000000e+02
    X0000016  C0000016  -5.500000000000e+02
    X0000016  C0000017  -1.000000000000e+00
    X0000016  C0000019  -1.000000000000e+00
    X0000016  C0000034   1.000000000000e+00
    X0000016  C0000035   1.000000000000e+00
    MARK      'MARKER'                 'INTEND'
    MARK      'MARKER'                 'INTORG'
    X0000017  C0000020  -1.000000000000e+02
    X0000017  C0000021  -2.000000000000e+02
    X0000017  C0000022  -1.000000000000e+00
    X0000017  C0000024  -1.000000000000e+00
    X0000017  C0000039   1.000000000000e+00
    X0000017  C0000040   1.000000000000e+00
    MARK      'MARKER'                 'INTEND'
    MARK      'MARKER'                 'INTORG'
    X0000018  C0000026  -1.000000000000e+02
    X0000018  C0000028   1.000000000000e+00
    X0000018  C0000029  -1.000000000000e+00
    X0000018  C0000031  -1.000000000000e+00
    X0000018  C0000045   1.000000000000e+00
    X0000018  C0000046   1.000000000000e+00
    MARK      'MARKER'                 'INTEND'
    MARK      'MARKER'                 'INTORG'
    X0000019  C0000032  -1.000000000000e+02
    X0000019  C0000033  -5.500000000000e+02
    X0000019  C0000034  -1.000000000000e+00
    X0000019  C0000036  -1.000000000000e+00
    X0000019  C0000050   1.000000000000e+00
    X0000019  C0000051   1.000000000000e+00
    MARK      'MARKER'                 'INTEND'
    MARK      'MARKER'                 'INTORG'
    X0000020  C0000037  -1.000000000000e+02
    X0000020  C0000038  -2.000000000000e+02
    X0000020  C0000039  -1.000000000000e+00
    X0000020  C0000041  -1.000000000000e+00
    X0000020  C0000055   1.000000000000e+00
    X0000020  C0000056   1.000000000000e+00
    MARK      'MARKER'                 'INTEND'
    MARK      'MARKER'                 'INTORG'
    X0000021  C0000043  -1.000000000000e+02
    X0000021  C0000044  -1.000000000000e+03
    X0000021  C0000045  -1.000000000000e+00
    X0000021  C0000047  -1.000000000000e+00
    MARK      'MARKER'                 'INTEND'
    MARK      'MARKER'                 'INTORG'
    X0000022  C0000048  -1.000000000000e+02
    X0000022  C0000049  -5.500000000000e+02
    X0000022  C0000050  -1.000000000000e+00
    X0000022  C0000052  -1.000000000000e+00
    MARK      'MARKER'                 'INTEND'
    MARK      'MARKER'                 'INTORG'
    X0000023  C0000053  -1.000000000000e+02
    X0000023  C0000054  -2.000000000000e+02
    X0000023  C0000055  -1.000000000000e+00
    X0000023  C0000057  -1.000000000000e+00
    MARK      'MARKER'                 'INTEND'
    MARK      'MARKER'                 'INTORG'
    X0000024  C0000002   1.000000000000e+00
    X0000024  OBJ        3.000000000000e+04
    MARK      'MARKER'                 'INTEND'
    MARK      'MARKER'                 'INTORG'
    X0000025  C0000005   1.000000000000e+00
    X0000025  OBJ        2.200000000000e+03
    MARK      'MARKER'                 'INTEND'
    MARK      'MARKER'                 'INTORG'
    X0000026  C0000008   1.000000000000e+00
    X0000026  OBJ        5.000000000000e+03
    MARK      'MARKER'                 'INTEND'
    MARK      'MARKER'                 'INTORG'
    X0000027  C0000012   1.000000000000e+00
    X0000027  C0000013   1.000000000000e+00
    X0000027  C0000014   1.000000000000e+00
    X0000027  OBJ        3.000000000000e+04
    MARK      'MARKER'                 'INTEND'
    MARK      'MARKER'                 'INTORG'
    X0000028  C0000017   1.000000000000e+00
    X0000028  C0000018   1.000000000000e+00
    X0000028  C0000019   1.000000000000e+00
    X0000028  OBJ        2.200000000000e+03
    MARK      'MARKER'                 'INTEND'
    MARK      'MARKER'                 'INTORG'
    X0000029  C0000022   1.000000000000e+00
    X0000029  C0000023   1.000000000000e+00
    X0000029  C0000024   1.000000000000e+00
    X0000029  OBJ        5.000000000000e+03
    MARK      'MARKER'                 'INTEND'
    MARK      'MARKER'                 'INTORG'
    X0000030  C0000029   1.000000000000e+00
    X0000030  C0000030   1.000000000000e+00
    X0000030  C0000031   1.000000000000e+00
    X0000030  OBJ        3.000000000000e+04
    MARK      'MARKER'                 'INTEND'
    MARK      'MARKER'                 'INTORG'
    X0000031  C0000034   1.000000000000e+00
    X0000031  C0000035   1.000000000000e+00
    X0000031  C0000036   1.000000000000e+00
    X0000031  OBJ        2.200000000000e+03
    MARK      'MARKER'                 'INTEND'
    MARK      'MARKER'                 'INTORG'
    X0000032  C0000039   1.000000000000e+00
    X0000032  C0000040   1.000000000000e+00
    X0000032  C0000041   1.000000000000e+00
    X0000032  OBJ        5.000000000000e+03
    MARK      'MARKER'                 'INTEND'
    MARK      'MARKER'                 'INTORG'
    X0000033  C0000045   1.000000000000e+00
    X0000033  C0000046   1.000000000000e+00
    X0000033  C0000047   1.000000000000e+00
    X0000033  OBJ        3.000000000000e+04
    MARK      'MARKER'                 'INTEND'
    MARK      'MARKER'                 'INTORG'
    X0000034  C0000050   1.000000000000e+00
    X0000034  C0000051   1.000000000000e+00
    X0000034  C0000052   1.000000000000e+00
    X0000034  OBJ        2.200000000000e+03
    MARK      'MARKER'                 'INTEND'
    MARK      'MARKER'                 'INTORG'
    X0000035  C0000055   1.000000000000e+00
    X0000035  C0000056   1.000000000000e+00
    X0000035  C0000057   1.000000000000e+00
    X0000035  OBJ        5.000000000000e+03
    MARK      'MARKER'                 'INTEND'
RHS
    RHS       C0000000   0.000000000000e+00
    RHS       C0000001   0.000000000000e+00
    RHS       C0000002   0.000000000000e+00
    RHS       C0000003   0.000000000000e+00
    RHS       C0000004   0.000000000000e+00
    RHS       C0000005   0.000000000000e+00
    RHS       C0000006   0.000000000000e+00
    RHS       C0000007   0.000000000000e+00
    RHS       C0000008   0.000000000000e+00
    RHS       C0000009   1.000000000000e+03
    RHS       C0000010   0.000000000000e+00
    RHS       C0000011   0.000000000000e+00
    RHS       C0000012   0.000000000000e+00
    RHS       C0000013   1.000000000000e+00
    RHS       C0000014   0.000000000000e+00
    RHS       C0000015   0.000000000000e+00
    RHS       C0000016   0.000000000000e+00
    RHS       C0000017   0.000000000000e+00
    RHS       C0000018   1.000000000000e+00
    RHS       C0000019   0.000000000000e+00
    RHS       C0000020   0.000000000000e+00
    RHS       C0000021   0.000000000000e+00
    RHS       C0000022   0.000000000000e+00
    RHS       C0000023   1.000000000000e+00
    RHS       C0000024   0.000000000000e+00
    RHS       C0000025   1.600000000000e+03
    RHS       C0000026   0.000000000000e+00
    RHS       C0000027   0.000000000000e+00
    RHS       C0000028   0.000000000000e+00
    RHS       C0000029   0.000000000000e+00
    RHS       C0000030   1.000000000000e+00
    RHS       C0000031   0.000000000000e+00
    RHS       C0000032   0.000000000000e+00
    RHS       C0000033   0.000000000000e+00
    RHS       C0000034   0.000000000000e+00
    RHS       C0000035   1.000000000000e+00
    RHS       C0000036   0.000000000000e+00
    RHS       C0000037   0.000000000000e+00
    RHS       C0000038   0.000000000000e+00
    RHS       C0000039   0.000000000000e+00
    RHS       C0000040   1.000000000000e+00
    RHS       C0000041   0.000000000000e+00
    RHS       C0000042   6.000000000000e+02
    RHS       C0000043   0.000000000000e+00
    RHS       C0000044   0.000000000000e+00
    RHS       C0000045   0.000000000000e+00
    RHS       C0000046   1.000000000000e+00
    RHS       C0000047   0.000000000000e+00
    RHS       C0000048   0.000000000000e+00
    RHS       C0000049   0.000000000000e+00
    RHS       C0000050   0.000000000000e+00
    RHS       C0000051   1.000000000000e+00
    RHS       C0000052   0.000000000000e+00
    RHS       C0000053   0.000000000000e+00
    RHS       C0000054   0.000000000000e+00
    RHS       C0000055   0.000000000000e+00
    RHS       C0000056   1.000000000000e+00
    RHS       C0000057   0.000000000000e+00
    RHS       C0000058   6.000000000000e+02
BOUNDS
 UP BND       X0000000   1.000000000000e+03
 UP BND       X0000001   5.500000000000e+02
 UP BND       X0000002   2.000000000000e+02
 UP BND       X0000003   1.000000000000e+03
 UP BND       X0000004   5.500000000000e+02
 UP BND       X0000005   2.000000000000e+02
 FX BND       X0000006   0.000000000000e+00
 UP BND       X0000007   5.500000000000e+02
 UP BND       X0000008   2.000000000000e+02
 UP BND       X0000009   1.000000000000e+03
 UP BND       X0000010   5.500000000000e+02
 UP BND       X0000011   2.000000000000e+02
 BV BND       X0000012
 BV BND       X0000013
 BV BND       X0000014
 BV BND       X0000015
 BV BND       X0000016
 BV BND       X0000017
 BV BND       X0000018
 BV BND       X0000019
 BV BND       X0000020
 BV BND       X0000021
 BV BND       X0000022
 BV BND       X0000023
 BV BND       X0000024
 BV BND       X0000025
 BV BND       X0000026
 BV BND       X0000027
 BV BND       X0000028
 BV BND       X0000029
 BV BND       X0000030
 BV BND       X0000031
 BV BND       X0000032
 BV BND       X0000033
 BV BND       X0000034
 BV BND       X0000035
ENDATA
